(set-info :smt-lib-version 2.7)
(set-logic ALL)
(set-info :source |
Generated on: 2026-06-22
Generator: pog2smtlib-2.7 github.com/CLEARSY/pog2smtlib-2.7 (-l HO_ALL -rpX)
Application: Discharging a proof obligation generated by aTelierB from an anonymized B machine
Target solver: CVC5 (--mbqi --enum-inst)
Time limit: 1200.0
|)
(set-info :license "www.gnu.org/licenses/gpl-3.0.en.html")
(set-info :category "industrial")
(set-info :status unknown)

(declare-datatype C (par (T1 T2) ((maplet (fst T1) (snd T2)))))
(define-sort |Z| () Int)
(declare-sort P 1)
(define-sort |(Z x Z)| () (C |Z| |Z|))
(define-sort |POW Z| () (P |Z|))
(define-sort |POW (Z x Z)| () (P |(Z x Z)|))
(declare-fun |set.in Z| (|Z| |POW Z|) Bool)
(declare-fun |set.in (Z x Z)| (|(Z x Z)| |POW (Z x Z)|) Bool)
(define-sort |POW POW (Z x Z)| () (P |POW (Z x Z)|))
(declare-fun |set.subseteq (Z x Z)| (|POW (Z x Z)| |POW (Z x Z)|) Bool)
(assert (!
    (forall ((s |POW (Z x Z)|) (t |POW (Z x Z)|))
      (=
        (|set.subseteq (Z x Z)| s t)
        (forall ((e |(Z x Z)|)) (=> (|set.in (Z x Z)| e s) (|set.in (Z x Z)| e t)))
      )
    )
    :named |ax.set.subseteq (Z x Z)|))
(declare-fun |set.in POW (Z x Z)| (|POW (Z x Z)| |POW POW (Z x Z)|) Bool)
(declare-fun |sub-sets (Z x Z)| (|POW (Z x Z)|) |POW POW (Z x Z)|)
(assert (!
  (forall ((s |POW (Z x Z)|) (t |POW (Z x Z)|))
    (=
      (|set.in POW (Z x Z)| s (|sub-sets (Z x Z)| t))
      (|set.subseteq (Z x Z)| s t)))
  :named |ax.sub-sets (Z x Z)|))
(declare-fun |set.product Z Z| (|POW Z| |POW Z|) |POW (Z x Z)|)
(assert (!
  (forall ((s1 |POW Z|) (s2 |POW Z|))
    (forall ((p |(Z x Z)|))
      (= (|set.in (Z x Z)| p (|set.product Z Z| s1 s2))
        (and (|set.in Z| (fst p) s1) (|set.in Z| (snd p) s2)))))
  :named |ax.set.in.product.1 (Z x Z)|))
(assert (!
  (forall ((s1 |POW Z|) (s2 |POW Z|))
    (forall ((x1 |Z|) (x2 |Z|))
      (= (|set.in (Z x Z)| (maplet x1 x2) (|set.product Z Z| s1 s2))
        (and (|set.in Z| x1 s1) (|set.in Z| x2 s2)))))
  :named |ax.set.in.product.2 (Z x Z)|))
(declare-fun |relations Z Z| (|POW Z| |POW Z|) |POW POW (Z x Z)|)
(assert (!
  (forall ((X |POW Z|) (Y |POW Z|))
    (= (|relations Z Z| X Y)
       (|sub-sets (Z x Z)| (|set.product Z Z| X Y))))
    :named |def.relations (Z x Z)|))
(declare-fun |functions Z Z| (|POW Z| |POW Z|) |POW POW (Z x Z)|)
(assert (!
  (forall ((X |POW Z|) (Y |POW Z|))
    (forall ((f |POW (Z x Z)|))
      (= (|set.in POW (Z x Z)| f (|functions Z Z| X Y))
         (forall ((p |(Z x Z)|) (q |(Z x Z)|))
           (=> (and (|set.in (Z x Z)| p f) (|set.in (Z x Z)| q f) (= (fst p) (fst q)))
               (= (snd p) (snd q)))))))
:named |ax:set.in.functions (Z x Z)|))
(declare-fun |rel.domain Z Z| (|POW (Z x Z)|) |POW Z|)
(assert (!
  (forall ((r |POW (Z x Z)|) (e |Z|))
    (= (|set.in Z| e (|rel.domain Z Z| r))
       (exists ((y |Z|)) (|set.in (Z x Z)| (maplet e y) r))))
  :named |ax:set.in.domain (Z x Z)|))
(declare-fun |functions.partial Z Z| (|POW Z| |POW Z|) |POW POW (Z x Z)|)
(assert (!
  (forall ((e1 |POW Z|) (e2 |POW Z|))
    (forall ((f |POW (Z x Z)|))
      (= (|set.in POW (Z x Z)| f (|functions.partial Z Z| e1 e2))
         (and (|set.in POW (Z x Z)| f (|relations Z Z| e1 e2))
              (|set.in POW (Z x Z)| f (|functions Z Z| e1 e2))))))
  :named |ax:def.pfun (Z x Z)|)
)
(declare-fun |relations.total Z Z| (|POW Z| |POW Z|) |POW POW (Z x Z)|)
(assert (!
  (forall ((X |POW Z|) (Y |POW Z|))
    (forall ((f |POW (Z x Z)|))
      (= (|set.in POW (Z x Z)| f (|relations.total Z Z| X Y))
         (= (|rel.domain Z Z| f) X))))
 :named |ax:set.in.relations.total (Z x Z)|))
(declare-const s2 |POW Z|)
(define-sort |? (Z x Z)| () (-> |(Z x Z)| Bool))
(declare-const |set.intent (Z x Z)| (-> |? (Z x Z)| |POW (Z x Z)|))
(assert (!
  (forall ((p |? (Z x Z)|))
    (forall ((x |(Z x Z)|))
      (= (|set.in (Z x Z)| x (|set.intent (Z x Z)| p))
         (@ p x))))
  :named |ax:set.in.intent (Z x Z)|))
(declare-fun |functions.total Z Z| (|POW Z| |POW Z|) |POW POW (Z x Z)|)
(assert (!
  (forall ((e1 |POW Z|) (e2 |POW Z|))
    (forall ((f |POW (Z x Z)|))
      (= (|set.in POW (Z x Z)| f (|functions.total Z Z| e1 e2))
         (and (|set.in POW (Z x Z)| f (|functions.partial Z Z| e1 e2))
              (|set.in POW (Z x Z)| f (|relations.total Z Z| e1 e2))))))
  :named |ax:def.tfun (Z x Z)|))
(declare-fun |interval| (|Z| |Z|) |POW Z|)
 (assert (!
    (forall ((l |Z|) (u |Z|) (e |Z|))
        (= (|set.in Z| e (|interval| l u))
            (and (<= l e) (<= e u))))
    :named |ax.set.in.interval|))
(assert (!
  (forall ((s |POW Z|) (t |POW Z|))
    (=
      (= s t)
      (forall ((e |Z|)) (= (|set.in Z| e s) (|set.in Z| e t)))))
  :named |ax.set.eq Z|))
(assert (!
  (= s2 (|interval| 0 65535))
  :named |Define:ctx:2|))
(assert (!
  (not
    (|set.in POW (Z x Z)| (|set.intent (Z x Z)| (lambda ((_c0 |(Z x Z)|)) (or (= _c0 (maplet 0 0))(= _c0 (maplet 1 15717))(= _c0 (maplet 2 31434))(= _c0 (maplet 3 18351))(= _c0 (maplet 4 62868))(= _c0 (maplet 5 51441))(= _c0 (maplet 6 36702))(= _c0 (maplet 7 45627))(= _c0 (maplet 8 54861))(= _c0 (maplet 9 60200))(= _c0 (maplet 10 44167))(= _c0 (maplet 11 37346))(= _c0 (maplet 12 9177))(= _c0 (maplet 13 7868))(= _c0 (maplet 14 22803))(= _c0 (maplet 15 25718))(= _c0 (maplet 16 37375))(= _c0 (maplet 17 44186))(= _c0 (maplet 18 60213))(= _c0 (maplet 19 54864))(= _c0 (maplet 20 25707))(= _c0 (maplet 21 22798))(= _c0 (maplet 22 7841))(= _c0 (maplet 23 9156))(= _c0 (maplet 24 18354))(= _c0 (maplet 25 31447))(= _c0 (maplet 26 15736))(= _c0 (maplet 27 29))(= _c0 (maplet 28 45606))(= _c0 (maplet 29 36675))(= _c0 (maplet 30 51436))(= _c0 (maplet 31 62857))(= _c0 (maplet 32 7835))(= _c0 (maplet 33 9214))(= _c0 (maplet 34 25681))(= _c0 (maplet 35 22836))(= _c0 (maplet 36 60175))(= _c0 (maplet 37 54890))(= _c0 (maplet 38 37317))(= _c0 (maplet 39 44192))(= _c0 (maplet 40 51414))(= _c0 (maplet 41 62899))(= _c0 (maplet 42 45596))(= _c0 (maplet 43 36729))(= _c0 (maplet 44 15682))(= _c0 (maplet 45 39))(= _c0 (maplet 46 18312))(= _c0 (maplet 47 31469))(= _c0 (maplet 48 36708))(= _c0 (maplet 49 45569))(= _c0 (maplet 50 62894))(= _c0 (maplet 51 51403))(= _c0 (maplet 52 31472))(= _c0 (maplet 53 18325))(= _c0 (maplet 54 58))(= _c0 (maplet 55 15711))(= _c0 (maplet 56 22825))(= _c0 (maplet 57 25676))(= _c0 (maplet 58 9187))(= _c0 (maplet 59 7814))(= _c0 (maplet 60 44221))(= _c0 (maplet 61 37336))(= _c0 (maplet 62 54903))(= _c0 (maplet 63 60178))(= _c0 (maplet 64 15670))(= _c0 (maplet 65 83))(= _c0 (maplet 66 18428))(= _c0 (maplet 67 31385))(= _c0 (maplet 68 51362))(= _c0 (maplet 69 62919))(= _c0 (maplet 70 45672))(= _c0 (maplet 71 36621))(= _c0 (maplet 72 60283))(= _c0 (maplet 73 54814))(= _c0 (maplet 74 37297))(= _c0 (maplet 75 44244))(= _c0 (maplet 76 7919))(= _c0 (maplet 77 9098))(= _c0 (maplet 78 25637))(= _c0 (maplet 79 22848))(= _c0 (maplet 80 44233))(= _c0 (maplet 81 37292))(= _c0 (maplet 82 54787))(= _c0 (maplet 83 60262))(= _c0 (maplet 84 22877))(= _c0 (maplet 85 25656))(= _c0 (maplet 86 9111))(= _c0 (maplet 87 7922))(= _c0 (maplet 88 31364))(= _c0 (maplet 89 18401))(= _c0 (maplet 90 78))(= _c0 (maplet 91 15659))(= _c0 (maplet 92 36624))(= _c0 (maplet 93 45685))(= _c0 (maplet 94 62938))(= _c0 (maplet 95 51391))(= _c0 (maplet 96 9133))(= _c0 (maplet 97 7880))(= _c0 (maplet 98 22887))(= _c0 (maplet 99 25602))(= _c0 (maplet 100 54841))(= _c0 (maplet 101 60252))(= _c0 (maplet 102 44275))(= _c0 (maplet 103 37270))(= _c0 (maplet 104 62944))(= _c0 (maplet 105 51333))(= _c0 (maplet 106 36650))(= _c0 (maplet 107 45647))(= _c0 (maplet 108 116))(= _c0 (maplet 109 15633))(= _c0 (maplet 110 31422))(= _c0 (maplet 111 18395))(= _c0 (maplet 112 45650))(= _c0 (maplet 113 36663))(= _c0 (maplet 114 51352))(= _c0 (maplet 115 62973))(= _c0 (maplet 116 18374))(= _c0 (maplet 117 31395))(= _c0 (maplet 118 15628))(= _c0 (maplet 119 105))(= _c0 (maplet 120 25631))(= _c0 (maplet 121 22906))(= _c0 (maplet 122 7893))(= _c0 (maplet 123 9136))(= _c0 (maplet 124 37259))(= _c0 (maplet 125 44270))(= _c0 (maplet 126 60225))(= _c0 (maplet 127 54820))(= _c0 (maplet 128 31340))(= _c0 (maplet 129 18185))(= _c0 (maplet 130 166))(= _c0 (maplet 131 15811))(= _c0 (maplet 132 36856))(= _c0 (maplet 133 45725))(= _c0 (maplet 134 62770))(= _c0 (maplet 135 51287))(= _c0 (maplet 136 44065))(= _c0 (maplet 137 37188))(= _c0 (maplet 138 55019))(= _c0 (maplet 139 60302))(= _c0 (maplet 140 22965))(= _c0 (maplet 141 25808))(= _c0 (maplet 142 9087))(= _c0 (maplet 143 7706))(= _c0 (maplet 144 60307))(= _c0 (maplet 145 55030))(= _c0 (maplet 146 37209))(= _c0 (maplet 147 44092))(= _c0 (maplet 148 7687))(= _c0 (maplet 149 9058))(= _c0 (maplet 150 25805))(= _c0 (maplet 151 22952))(= _c0 (maplet 152 15838))(= _c0 (maplet 153 187))(= _c0 (maplet 154 18196))(= _c0 (maplet 155 31345))(= _c0 (maplet 156 51274))(= _c0 (maplet 157 62767))(= _c0 (maplet 158 45696))(= _c0 (maplet 159 36837))(= _c0 (maplet 160 25847))(= _c0 (maplet 161 22930))(= _c0 (maplet 162 7741))(= _c0 (maplet 163 9048))(= _c0 (maplet 164 37219))(= _c0 (maplet 165 44038))(= _c0 (maplet 166 60329))(= _c0 (maplet 167 54988))(= _c0 (maplet 168 45754))(= _c0 (maplet 169 36831))(= _c0 (maplet 170 51312))(= _c0 (maplet 171 62741))(= _c0 (maplet 172 18222))(= _c0 (maplet 173 31307))(= _c0 (maplet 174 15844))(= _c0 (maplet 175 129))(= _c0 (maplet 176 62728))(= _c0 (maplet 177 51309))(= _c0 (maplet 178 36802))(= _c0 (maplet 179 45735))(= _c0 (maplet 180 156))(= _c0 (maplet 181 15865))(= _c0 (maplet 182 31318))(= _c0 (maplet 183 18227))(= _c0 (maplet 184 9029))(= _c0 (maplet 185 7712))(= _c0 (maplet 186 22927))(= _c0 (maplet 187 25834))(= _c0 (maplet 188 54993))(= _c0 (maplet 189 60340))(= _c0 (maplet 190 44059))(= _c0 (maplet 191 37246))(= _c0 (maplet 192 18266))(= _c0 (maplet 193 31295))(= _c0 (maplet 194 15760))(= _c0 (maplet 195 245))(= _c0 (maplet 196 45774))(= _c0 (maplet 197 36779))(= _c0 (maplet 198 51204))(= _c0 (maplet 199 62817))(= _c0 (maplet 200 37143))(= _c0 (maplet 201 44146))(= _c0 (maplet 202 60381))(= _c0 (maplet 203 54968))(= _c0 (maplet 204 25731))(= _c0 (maplet 205 23014))(= _c0 (maplet 206 7753))(= _c0 (maplet 207 9004))(= _c0 (maplet 208 54949))(= _c0 (maplet 209 60352))(= _c0 (maplet 210 44143))(= _c0 (maplet 211 37130))(= _c0 (maplet 212 9009))(= _c0 (maplet 213 7764))(= _c0 (maplet 214 23035))(= _c0 (maplet 215 25758))(= _c0 (maplet 216 232))(= _c0 (maplet 217 15757))(= _c0 (maplet 218 31266))(= _c0 (maplet 219 18247))(= _c0 (maplet 220 62844))(= _c0 (maplet 221 51225))(= _c0 (maplet 222 36790))(= _c0 (maplet 223 45779))(= _c0 (maplet 224 22977))(= _c0 (maplet 225 25764))(= _c0 (maplet 226 8971))(= _c0 (maplet 227 7790))(= _c0 (maplet 228 44117))(= _c0 (maplet 229 37168))(= _c0 (maplet 230 54943))(= _c0 (maplet 231 60410))(= _c0 (maplet 232 36748))(= _c0 (maplet 233 45801))(= _c0 (maplet 234 62790))(= _c0 (maplet 235 51235))(= _c0 (maplet 236 31256))(= _c0 (maplet 237 18301))(= _c0 (maplet 238 210))(= _c0 (maplet 239 15799))(= _c0 (maplet 240 51262))(= _c0 (maplet 241 62811))(= _c0 (maplet 242 45812))(= _c0 (maplet 243 36753))(= _c0 (maplet 244 15786))(= _c0 (maplet 245 207))(= _c0 (maplet 246 18272))(= _c0 (maplet 247 31237))(= _c0 (maplet 248 7795))(= _c0 (maplet 249 8982))(= _c0 (maplet 250 25785))(= _c0 (maplet 251 23004))(= _c0 (maplet 252 60391))(= _c0 (maplet 253 54914))(= _c0 (maplet 254 37165))(= _c0 (maplet 255 44104))))) (|functions.total Z Z| (|interval| 0 255) s2)))
  :named |Goal|))
(check-sat)
(exit)
